;; produced by cvc5.drv ;;
(set-logic ALL)
(set-info :smt-lib-version 2.6)
;;; generated by SMT-LIB2 driver
;;; SMT-LIB2 driver: bit-vectors, common part
;;; SMT-LIB2: integer arithmetic
(declare-sort us_private 0)

(declare-const us_null_ext__ us_private)

(declare-sort integer 0)

;; "integer'int"
(declare-fun integerqtint (integer) Int)

;; "integer'axiom"
(assert
  (forall ((i integer))
    (and
      (<= (- 2147483648) (integerqtint i))
      (<= (integerqtint i) 2147483647))))

;; "in_range"
(define-fun in_range ((x Int)) Bool
  (and (<= (- 2147483648) x) (<= x 2147483647)))

;; "to_rep"
(define-fun to_rep ((x integer)) Int
  (integerqtint x))

;; "of_rep"
(declare-fun of_rep (Int) integer)

;; "inversion_axiom"
(assert
  (forall ((x integer)) (! (= (of_rep (to_rep x)) x) :pattern ((to_rep x)) )))

;; "range_axiom"
(assert
  (forall ((x integer)) (! (in_range (to_rep x)) :pattern ((to_rep x)) )))

;; "coerce_axiom"
(assert
  (forall ((x Int))
    (! (=> (in_range x) (= (to_rep (of_rep x)) x)) :pattern ((to_rep
                                                               (of_rep x))) )))

;; "in_range"
(define-fun in_range1 ((x Int)) Bool
  (and (<= 0 x) (<= x 2147483646)))

(declare-datatypes ((t 0))
  (((tqtmk (rec__first integer)(rec__last integer)))))

;; "mk"
(declare-fun mk (Int
  Int) t)

;; "mk_def"
(assert
  (forall ((f Int) (l Int))
    (! (=>
         (in_range f)
         (=>
           (in_range l)
           (and
             (= (to_rep (rec__first (mk f l))) f)
             (= (to_rep (rec__last (mk f l))) l)))) :pattern ((mk f l)) )))

;; "dynamic_property"
(define-fun dynamic_property ((range_first Int) (range_last Int) (low Int) (high Int)) Bool
  (and
    (in_range low)
    (and
      (in_range high)
      (=> (<= low high) (and (in_range1 low) (in_range1 high))))))

(declare-datatypes ((us_t 0))
  (((us_tqtmk (elts (Array Int integer))(rt t)))))

;; "to_array"
(define-fun to_array ((a us_t)) (Array Int integer)
  (elts a))

;; "of_array"
(define-fun of_array ((a (Array Int integer)) (f Int) (l Int)) us_t
  (us_tqtmk a (mk f l)))

;; "first"
(define-fun first ((a us_t)) Int
  (to_rep (rec__first (rt a))))

;; "last"
(define-fun last ((a us_t)) Int
  (to_rep (rec__last (rt a))))

;; "length"
(define-fun length ((a us_t)) Int
  (ite (<= (first a) (last a)) (+ (- (last a) (first a)) 1) 0))

(declare-const value__size Int)

(declare-const object__size Int)

(declare-const component__size Int)

(declare-const alignment Int)

;; "value__size_axiom"
(assert (<= 0 value__size))

;; "object__size_axiom"
(assert (<= 0 object__size))

;; "component__size_axiom"
(assert (<= 0 component__size))

;; "alignment_axiom"
(assert (<= 0 alignment))

;; "dynamic_invariant"
(define-fun dynamic_invariant ((temp___expr_197 us_t) (temp___is_init_193 Bool) (temp___skip_constant_194 Bool) (temp___do_toplevel_195 Bool) (temp___do_typ_inv_196 Bool)) Bool
  (and
    (=>
      (not (= temp___skip_constant_194 true))
      (dynamic_property
        0
        2147483646
        (first temp___expr_197)
        (last temp___expr_197)))
    (=>
      (= temp___is_init_193 true)
      (=> (= temp___do_toplevel_195 true) (= (first temp___expr_197) 0)))))

;; "remove_last"
(define-fun remove_last ((param__a us_t)) us_t
  (let ((temp___172 (let ((temp___171 (- (last param__a) 1)))
                      (let ((temp___170 (first param__a)))
                        (of_array (to_array param__a) temp___170 temp___171)))))
    (let ((temp___173 (to_array temp___172)))
      (of_array temp___173 (first temp___172) (last temp___172)))))

;; "occ"
(declare-fun occ (us_t
  Int) Int)

;; "occ__function_guard"
(declare-fun occ__function_guard (Int
  us_t
  Int) Bool)

;; "occ_def"
(declare-fun occ_def (us_t
  Int) Int)

;; "occ_def__function_guard"
(declare-fun occ_def__function_guard (Int
  us_t
  Int) Bool)

;; "in_range"
(define-fun in_range2 ((x Int)) Bool
  (and (<= 0 x) (<= x 2147483647)))

;; "is_set"
(define-fun is_set ((param__a us_t) (param__i Int) (param__v Int) (param__r us_t)) Bool
  (and (and (and (= (first param__r) (first param__a)) (= (last param__r) 
  (last
    param__a))) (= (to_rep (select (to_array param__r) param__i)) param__v)) 
  (ite (forall ((j Int))
         (=>
           (and (<= (first param__a) j) (<= j (last param__a)))
           (=>
             (not (= param__i j))
             (= (to_rep (select (to_array param__r) j)) (to_rep
                                                          (select (to_array
                                                                    param__a) j))))))
    true
    false)))

(declare-const a us_t)

(declare-const i Int)

(declare-const v Int)

(declare-const e Int)

(declare-const r us_t)

(declare-const b__first integer)

(declare-const b__last integer)

;; "occ_def__post_axiom"
(assert
  (forall ((param__a us_t))
    (forall ((param__e Int))
      (! (=>
           (and
             (dynamic_invariant param__a true false true true)
             (in_range param__e))
           (let ((result (occ_def param__a param__e)))
             (=>
               (occ_def__function_guard result param__a param__e)
               (and (<= result (length param__a)) (in_range2 result))))) :pattern (
      (occ_def
        param__a
        param__e)) ))))

;; "occ_def__def_axiom"
(assert
  (forall ((param__a us_t))
    (forall ((param__e Int))
      (! (and
           (forall ((temp___213 us_t))
             (occ_def__function_guard
               (occ_def temp___213 param__e)
               temp___213
               param__e))
           (and
             (forall ((temp___215 us_t))
               (occ_def__function_guard
                 (occ_def temp___215 param__e)
                 temp___215
                 param__e))
             (= (occ_def param__a param__e) (ite (= (length param__a) 0)
                                              0
                                              (ite (= (to_rep
                                                        (select (to_array
                                                                  param__a) 
                                                        (last
                                                          param__a))) param__e)
                                                (+ (let ((temp___213 
                                                     (remove_last
                                                       param__a)))
                                                     (occ_def
                                                       temp___213
                                                       param__e)) 1)
                                                (let ((temp___215 (remove_last
                                                                    param__a)))
                                                  (occ_def
                                                    temp___215
                                                    param__e))))))) :pattern (
      (occ_def
        param__a
        param__e)) ))))

;; "occ__post_axiom"
(assert
  (forall ((param__a us_t))
    (forall ((param__e Int))
      (! (=>
           (and
             (dynamic_invariant param__a true false true true)
             (in_range param__e))
           (let ((result (occ param__a param__e)))
             (=>
               (occ__function_guard result param__a param__e)
               (and (<= result (length param__a)) (in_range2 result))))) :pattern (
      (occ
        param__a
        param__e)) ))))

;; "occ__def_axiom"
(assert
  (forall ((param__a us_t))
    (forall ((param__e Int))
      (! (and
           (occ_def__function_guard
             (occ_def param__a param__e)
             param__a
             param__e)
           (= (occ param__a param__e) (occ_def param__a param__e))) :pattern (
      (occ
        param__a
        param__e)) ))))

;; Goal "def'vc"
;; File "perm.ads", line 32, characters 0-0
(assert
  (not
  (=>
    (dynamic_invariant a true false true true)
    (=>
      (in_range1 i)
      (=>
        (in_range v)
        (=>
          (in_range e)
          (=>
            (dynamic_invariant r true false true true)
            (=>
              (and
                (and (<= (first a) i) (<= i (last a)))
                (= (is_set a i v r) true))
              (=>
                (forall ((o Int) (o1 us_t))
                  (occ__function_guard (occ o1 o) o1 o))
                (=>
                  (forall ((o Int) (o1 us_t))
                    (occ__function_guard (occ o1 o) o1 o))
                  (=>
                    (forall ((o Int) (o1 us_t))
                      (occ__function_guard (occ o1 o) o1 o))
                    (=>
                      (forall ((o Int) (o1 us_t))
                        (occ__function_guard (occ o1 o) o1 o))
                      (=>
                        (forall ((temp___compl_307 Int) (temp___compl_308 us_t))
                          (occ__function_guard
                            (occ temp___compl_308 temp___compl_307)
                            temp___compl_308
                            temp___compl_307))
                        (=>
                          (forall ((temp___compl_304 us_t) (temp___compl_307 Int))
                            (occ__function_guard
                              (occ temp___compl_304 temp___compl_307)
                              temp___compl_304
                              temp___compl_307))
                          (=>
                            (forall ((temp___compl_307 Int) (temp___compl_308 us_t))
                              (occ__function_guard
                                (occ temp___compl_308 temp___compl_307)
                                temp___compl_308
                                temp___compl_307))
                            (=>
                              (forall ((temp___compl_304 us_t) (temp___compl_307 Int))
                                (occ__function_guard
                                  (occ temp___compl_304 temp___compl_307)
                                  temp___compl_304
                                  temp___compl_307))
                              (=>
                                (forall ((temp___compl_307 Int) (temp___compl_308 us_t))
                                  (occ__function_guard
                                    (occ temp___compl_308 temp___compl_307)
                                    temp___compl_308
                                    temp___compl_307))
                                (=>
                                  (forall ((temp___compl_304 us_t) (temp___compl_307 Int))
                                    (occ__function_guard
                                      (occ temp___compl_304 temp___compl_307)
                                      temp___compl_304
                                      temp___compl_307))
                                  (=>
                                    (forall ((temp___compl_307 Int) (temp___compl_308 us_t))
                                      (occ__function_guard
                                        (occ
                                          temp___compl_308
                                          temp___compl_307)
                                        temp___compl_308
                                        temp___compl_307))
                                    (=>
                                      (forall ((temp___compl_304 us_t) (temp___compl_307 Int))
                                        (occ__function_guard
                                          (occ
                                            temp___compl_304
                                            temp___compl_307)
                                          temp___compl_304
                                          temp___compl_307))
                                      (=>
                                        (let ((o a))
                                          (let ((perm__occ_set__b__assume 
                                            (remove_last
                                              o)))
                                            (and
                                              (and
                                                (dynamic_invariant
                                                  perm__occ_set__b__assume
                                                  true
                                                  false
                                                  true
                                                  true)
                                                (= perm__occ_set__b__assume 
                                                (let ((temp___203qtunused 
                                                  (let ((temp___202 (- 
                                                    (last
                                                      o) 1)))
                                                    (let ((temp___201 
                                                      (first
                                                        o)))
                                                      (of_array
                                                        (to_array o)
                                                        temp___201
                                                        temp___202)))))
                                                  (let ((temp___202 (- 
                                                    (last
                                                      o) 1)))
                                                    (let ((temp___201 
                                                      (first
                                                        o)))
                                                      (of_array
                                                        (to_array o)
                                                        temp___201
                                                        temp___202))))))
                                              (exists ((b (Array Int integer)))
                                                (and
                                                  (= b (to_array
                                                         perm__occ_set__b__assume))
                                                  (and
                                                    (= (to_rep b__first) 
                                                    (first
                                                      perm__occ_set__b__assume))
                                                    (and
                                                      (= (to_rep b__last) 
                                                      (last
                                                        perm__occ_set__b__assume))
                                                      (and
                                                        (dynamic_invariant
                                                          (of_array
                                                            b
                                                            (to_rep b__first)
                                                            (to_rep b__last))
                                                          true
                                                          false
                                                          true
                                                          true)
                                                        (exists ((spark__branch Bool))
                                                          (and
                                                            (= spark__branch 
                                                            (ite (= (length
                                                                    a) 0)
                                                              true
                                                              false))
                                                            (=>
                                                              (not
                                                                (= spark__branch true))
                                                              (exists 
                                                                ((spark__branch1 Bool))
                                                                (and
                                                                  (= spark__branch1 
                                                                  (ite (= 
                                                                    i 
                                                                    (last
                                                                    a))
                                                                    true
                                                                    false))
                                                                  (ite (= spark__branch1 true)
                                                                    (let ((o1 
                                                                    e))
                                                                    (let ((o2 
                                                                    r))
                                                                    (let ((o3 
                                                                    (remove_last
                                                                    o2)))
                                                                    (and
                                                                    (and
                                                                    (dynamic_invariant
                                                                    o3
                                                                    true
                                                                    false
                                                                    true
                                                                    true)
                                                                    (= o3 
                                                                    (let ((temp___203qtunused 
                                                                    (let ((temp___202 (- 
                                                                    (last
                                                                    o2) 1)))
                                                                    (let ((temp___201 
                                                                    (first
                                                                    o2)))
                                                                    (of_array
                                                                    (to_array
                                                                    o2)
                                                                    temp___201
                                                                    temp___202)))))
                                                                    (let ((temp___202 (- 
                                                                    (last
                                                                    o2) 1)))
                                                                    (let ((temp___201 
                                                                    (first
                                                                    o2)))
                                                                    (of_array
                                                                    (to_array
                                                                    o2)
                                                                    temp___201
                                                                    temp___202))))))
                                                                    (exists 
                                                                    ((o4 Int))
                                                                    (and
                                                                    (= 
                                                                    (to_rep
                                                                    b__last) o4)
                                                                    (exists 
                                                                    ((o5 Int))
                                                                    (and
                                                                    (= 
                                                                    (to_rep
                                                                    b__first) o5)
                                                                    (= 
                                                                    (occ
                                                                    (of_array
                                                                    b
                                                                    o5
                                                                    o4)
                                                                    o1) 
                                                                    (occ
                                                                    o3
                                                                    o1))))))))))
                                                                    (exists 
                                                                    ((o1 Int))
                                                                    (and
                                                                    (= 
                                                                    (to_rep
                                                                    b__last) o1)
                                                                    (exists 
                                                                    ((o2 Int))
                                                                    (and
                                                                    (= 
                                                                    (to_rep
                                                                    b__first) o2)
                                                                    (exists 
                                                                    ((o3 integer))
                                                                    (and
                                                                    (= 
                                                                    (to_rep
                                                                    o3) 
                                                                    v)
                                                                    (and
                                                                    (and
                                                                    (<= o2 
                                                                    i)
                                                                    (<= 
                                                                    i o1))
                                                                    (let ((temp___302 
                                                                    (us_tqtmk
                                                                    (store b 
                                                                    i o3)
                                                                    (rt
                                                                    (of_array
                                                                    b
                                                                    o2
                                                                    o1)))))
                                                                    (and
                                                                    (= 
                                                                    (first
                                                                    temp___302) 0)
                                                                    (exists 
                                                                    ((b1 (Array Int integer)))
                                                                    (and
                                                                    (= b1 
                                                                    (to_array
                                                                    temp___302))
                                                                    (let ((o4 
                                                                    e))
                                                                    (exists 
                                                                    ((o5 Int))
                                                                    (and
                                                                    (= 
                                                                    (to_rep
                                                                    b__last) o5)
                                                                    (exists 
                                                                    ((o6 Int))
                                                                    (and
                                                                    (= 
                                                                    (to_rep
                                                                    b__first) o6)
                                                                    (let ((o7 
                                                                    r))
                                                                    (let ((o8 
                                                                    (remove_last
                                                                    o7)))
                                                                    (and
                                                                    (and
                                                                    (dynamic_invariant
                                                                    o8
                                                                    true
                                                                    false
                                                                    true
                                                                    true)
                                                                    (= o8 
                                                                    (let ((temp___203qtunused 
                                                                    (let ((temp___202 (- 
                                                                    (last
                                                                    o7) 1)))
                                                                    (let ((temp___201 
                                                                    (first
                                                                    o7)))
                                                                    (of_array
                                                                    (to_array
                                                                    o7)
                                                                    temp___201
                                                                    temp___202)))))
                                                                    (let ((temp___202 (- 
                                                                    (last
                                                                    o7) 1)))
                                                                    (let ((temp___201 
                                                                    (first
                                                                    o7)))
                                                                    (of_array
                                                                    (to_array
                                                                    o7)
                                                                    temp___201
                                                                    temp___202))))))
                                                                    (and
                                                                    (= 
                                                                    (occ
                                                                    o8
                                                                    o4) 
                                                                    (occ
                                                                    (of_array
                                                                    b1
                                                                    o6
                                                                    o5)
                                                                    o4))
                                                                    (let ((o9 
                                                                    a))
                                                                    (let ((temp___compl_304 
                                                                    (remove_last
                                                                    o9)))
                                                                    (and
                                                                    (and
                                                                    (dynamic_invariant
                                                                    temp___compl_304
                                                                    true
                                                                    false
                                                                    true
                                                                    true)
                                                                    (= temp___compl_304 
                                                                    (let ((temp___203qtunused 
                                                                    (let ((temp___202 (- 
                                                                    (last
                                                                    o9) 1)))
                                                                    (let ((temp___201 
                                                                    (first
                                                                    o9)))
                                                                    (of_array
                                                                    (to_array
                                                                    o9)
                                                                    temp___201
                                                                    temp___202)))))
                                                                    (let ((temp___202 (- 
                                                                    (last
                                                                    o9) 1)))
                                                                    (let ((temp___201 
                                                                    (first
                                                                    o9)))
                                                                    (of_array
                                                                    (to_array
                                                                    o9)
                                                                    temp___201
                                                                    temp___202))))))
                                                                    (let ((temp___compl_305 
                                                                    i))
                                                                    (let ((temp___compl_306 
                                                                    v))
                                                                    (let ((temp___compl_307 
                                                                    e))
                                                                    (exists 
                                                                    ((o10 Int))
                                                                    (and
                                                                    (= 
                                                                    (to_rep
                                                                    b__last) o10)
                                                                    (exists 
                                                                    ((o11 Int))
                                                                    (and
                                                                    (= 
                                                                    (to_rep
                                                                    b__first) o11)
                                                                    (let ((temp___compl_308 
                                                                    (of_array
                                                                    b1
                                                                    o11
                                                                    o10)))
                                                                    (ite (= temp___compl_306 
                                                                    (to_rep
                                                                    (select 
                                                                    (to_array
                                                                    temp___compl_304) temp___compl_305)))
                                                                    (= 
                                                                    (occ
                                                                    temp___compl_308
                                                                    temp___compl_307) 
                                                                    (occ
                                                                    temp___compl_304
                                                                    temp___compl_307))
                                                                    (ite (= temp___compl_306 temp___compl_307)
                                                                    (= 
                                                                    (occ
                                                                    temp___compl_308
                                                                    temp___compl_307) (+ 
                                                                    (occ
                                                                    temp___compl_304
                                                                    temp___compl_307) 1))
                                                                    (ite (= 
                                                                    (to_rep
                                                                    (select 
                                                                    (to_array
                                                                    temp___compl_304) temp___compl_305)) temp___compl_307)
                                                                    (= 
                                                                    (occ
                                                                    temp___compl_308
                                                                    temp___compl_307) (- 
                                                                    (occ
                                                                    temp___compl_304
                                                                    temp___compl_307) 1))
                                                                    (= 
                                                                    (occ
                                                                    temp___compl_308
                                                                    temp___compl_307) 
                                                                    (occ
                                                                    temp___compl_304
                                                                    temp___compl_307))))))))))))))))))))))))))))))))))))))))))))))))))
                                        (=>
                                          (= v (to_rep
                                                 (select (to_array a) 
                                                 i)))
                                          (=>
                                            (occ__function_guard
                                              (occ r e)
                                              r
                                              e)
                                            (=>
                                              (occ__function_guard
                                                (occ a e)
                                                a
                                                e)
                                              (= (occ r e) (occ a e))))))))))))))))))))))))))

(check-sat)
(get-info :reason-unknown)
